9
0, 603, 468, 590, 545, 573, 206, 521, 600
603, 0, 654, 806, 750, 713, 415, 590, 719
468, 654, 0, 157, 100, 105, 386, 111, 131
590, 806, 157, 0, 56, 105, 537, 223, 119
545, 750, 100, 56, 0, 71, 483, 174, 95
573, 713, 105, 105, 71, 0, 484, 123, 29
206, 415, 386, 537, 483, 484, 0, 396, 505
521, 590, 111, 223, 174, 123, 396, 0, 130
600, 719, 131, 119, 95, 29, 505, 130, 0
